27	3

10	10	10	

0	0	0	0	3	2	3	4	
3	3	5	2	2	5	6	
2	5	4	3	3	5	7	8	
1	5	2	2	2	5	6	
6	4	1	4	2	10	11	
3	5	5	4	2	10	12	
2	3	5	2	2	9	11	
4	2	4	4	2	10	11	
4	3	2	2	1	13	
4	3	2	4	2	15	16	
3	3	3	2	2	13	14	
5	4	1	4	1	13	
5	1	4	4	1	19	
1	2	2	2	1	18	
1	5	5	4	1	17	
5	1	5	4	1	20	
2	4	5	4	2	21	22	
1	3	2	3	2	21	24	
3	5	3	3	1	23	
4	2	4	6	1	21	
2	1	6	2	1	26	
3	3	2	1	1	25	
2	1	0	4	1	25	
1	2	2	1	1	26	
2	0	1	3	1	27	
2	2	2	2	1	27	
0	0	0	0	0	
